100 77957

 559 887
59 272
697 39
53 848
818 864
825 597
238 575
324 814
482 787
597 891
288 553
593 968
298 997
56 117
3 850
102 500
793 388
962 614
427 56
513 507
147 871
552 214
145 427
612 940
934 429
196 359
765 441
24 520
376 632
111 801
353 453
174 818
374 534
418 339
301 658
657 718
919 559
401 57
193 170
271 286
855 283
572 674
456 19
150 756
450 266
279 311
944 528
885 216
84 885
517 86
226 445
411 850
877 616
528 293
335 421
208 707
801 974
625 894
469 343
218 999
335 4
960 28
521 824
401 200
522 61
779 238
341 427
179 731
585 625
666 238
713 504
882 927
372 816
76 324
959 983
436 709
624 63
667 36
547 169
206 728
756 184
804 512
553 94
489 921
114 344
84 909
340 945
311 7
954 465
784 25
660 909
518 519
168 75
979 111
376 384
107 941
494 693
874 868
888 367
11 44
